c Random generated cnf formula, satisfiable: true
p cnf 10 50
2 5 -6 0
-10 -3 -7 0
-1 -7 9 0
-9 4 -1 0
-6 8 -9 0
-2 5 -4 0
-7 -4 6 0
6 9 8 0
-2 -10 -7 0
-9 10 -7 0
-10 2 4 0
-6 -2 -1 0
1 8 -7 0
9 4 -3 0
2 -7 -3 0
-1 -3 -10 0
6 5 -9 0
-4 -7 -3 0
5 9 -7 0
7 -4 -9 0
-4 -10 2 0
10 4 1 0
-5 -10 2 0
5 9 7 0
-9 2 5 0
6 -7 8 0
1 4 -7 0
-6 -2 -3 0
6 -8 -4 0
10 8 3 0
-9 8 1 0
-9 10 2 0
1 -7 3 0
2 4 10 0
8 10 9 0
-7 5 1 0
-5 -2 -4 0
-7 -10 -8 0
-10 2 -3 0
-8 1 3 0
-4 7 -2 0
-7 9 -5 0
1 -10 -8 0
-8 3 10 0
-8 -5 -4 0
10 -2 7 0
-10 -9 -2 0
10 -8 5 0
9 -5 -4 0
-6 9 1 0
